
List of user-set options:

                                    Name   Value                used
                           compl_inf_tol = 1                     yes
                         constr_viol_tol = 1                     yes
                            dual_inf_tol = 1000                  yes
                           linear_solver = ma97                  yes
                              ma86_small = 1e-30                  no
                                  ma86_u = 0.0001                 no
                              ma97_order = best                  yes
                              ma97_small = 1e-30                 yes
                            ma97_switch1 = at_start              yes
                            ma97_switch2 = od_hd_reuse           yes
                                  ma97_u = 1e-06                 yes
                               ma97_umax = 0.5                   yes
                                max_iter = 1000                  yes
                    max_refinement_steps = 20                    yes
                    min_refinement_steps = 5                     yes
                                 mu_init = 1e-06                 yes
           mu_superlinear_decrease_power = 1.25                  yes
                   nlp_scaling_min_value = 1e-08                 yes
                        option_file_name = Preset_Case_210_pf.opt  yes
                             output_file = ./tmp/Preset_Case_210_pf.output  yes
                      print_user_options = yes                   yes
        required_infeasibility_reduction = 1                      no
                                     tol = 1e-08                 yes
                   warm_start_bound_frac = 1e-20                 yes
                   warm_start_bound_push = 1e-20                 yes
                   warm_start_init_point = yes                   yes
              warm_start_mult_bound_push = 1e-20                 yes
                warm_start_mult_init_max = 1e+40                 yes
             warm_start_slack_bound_frac = 1e-20                 yes
             warm_start_slack_bound_push = 1e-20                 yes

******************************************************************************
This program contains Ipopt, a library for large-scale nonlinear optimization.
 Ipopt is released as open source code under the Eclipse Public License (EPL).
         For more information visit http://projects.coin-or.org/Ipopt
******************************************************************************

This is Ipopt version 3.12.10, running with linear solver ma97.

Number of nonzeros in equality constraint Jacobian...:   123442
Number of nonzeros in inequality constraint Jacobian.:      213
Number of nonzeros in Lagrangian Hessian.............:    49069

Total number of variables............................:    31591
                     variables with only lower bounds:    12912
                variables with lower and upper bounds:    15130
                     variables with only upper bounds:        0
Total number of equality constraints.................:    31483
Total number of inequality constraints...............:       25
        inequality constraints with only lower bounds:        4
   inequality constraints with lower and upper bounds:        0
        inequality constraints with only upper bounds:       21

iter    objective    inf_pr   inf_du lg(mu)  ||d||  lg(rg) alpha_du alpha_pr  ls
   0 -5.3125618e+00 4.05e-03 1.02e+00  -6.0 0.00e+00    -  0.00e+00 0.00e+00   0
   1 -5.3119755e+00 1.83e-02 1.02e+00  -6.0 2.68e+05    -  1.27e-04 6.01e-05h  2
   2 -5.3135877e+00 1.83e-02 1.24e+00  -6.0 5.79e+03    -  7.35e-03 1.97e-03h  1
   3 -5.3261226e+00 1.56e-01 4.38e+01  -6.0 7.85e+03    -  1.73e-01 1.23e-02f  1
   4 -5.3624699e+00 1.06e+00 6.26e+01  -6.0 5.19e+03    -  1.33e-01 4.51e-02f  1
   5 -5.6206492e+00 4.72e+01 1.33e+03  -6.0 4.93e+03    -  2.13e-01 3.40e-01h  1
   6 -5.6057159e+00 1.76e+01 5.24e+02  -6.0 4.85e+00  -4.0 4.96e-02 6.27e-01h  1
   7 -5.6088421e+00 1.75e+01 5.21e+02  -6.0 1.01e+04    -  2.56e-04 4.69e-03h  1
   8 -5.6085965e+00 1.74e+01 5.18e+02  -6.0 2.85e+02  -4.5 1.47e-02 6.74e-03h  1
   9 -5.6019503e+00 4.55e-03 9.72e+01  -6.0 3.49e+00  -4.1 4.48e-01 1.00e+00h  1
iter    objective    inf_pr   inf_du lg(mu)  ||d||  lg(rg) alpha_du alpha_pr  ls
  10 -5.7367185e+00 2.51e+00 6.13e+02  -6.0 3.65e+01  -4.5 4.81e-01 1.00e+00f  1
  11 -5.7561514e+00 1.78e+00 4.00e+02  -6.0 2.52e+01  -5.0 6.08e-01 4.29e-01h  1
  12 -5.8105314e+00 4.39e+00 3.99e+02  -6.0 3.23e+03    -  1.58e-01 1.74e-01h  1
  13 -5.8404904e+00 4.66e+00 2.95e+02  -6.0 5.11e+02  -5.5 5.82e-06 9.96e-01h  1
  14 -5.8374392e+00 6.01e-02 1.52e+01  -6.0 5.66e+01  -6.0 3.17e-01 1.00e+00h  1
  15 -5.8405825e+00 1.37e-02 1.74e+00  -6.0 1.99e+01  -5.5 1.00e+00 1.00e+00h  1
  16 -5.8490468e+00 2.80e-02 3.41e+00  -6.0 3.87e+01  -6.0 6.34e-01 1.00e+00h  1
  17 -5.8657066e+00 1.43e-01 1.04e+01  -6.0 6.90e+01  -6.5 6.08e-01 1.00e+00h  1
  18 -5.8794805e+00 6.36e-01 1.01e+01  -6.0 1.45e+02  -7.0 1.00e+00 1.00e+00h  1
  19 -5.8886835e+00 1.32e+00 1.79e+01  -6.0 5.05e+02  -7.4 7.61e-01 3.44e-01h  1
iter    objective    inf_pr   inf_du lg(mu)  ||d||  lg(rg) alpha_du alpha_pr  ls
  20 -5.9161469e+00 3.14e+01 1.82e+04  -6.0 1.45e+03  -7.9 4.62e-02 9.02e-01h  1
  21 -5.9098057e+00 2.61e+01 1.50e+04  -6.0 1.78e+02  -5.7 4.37e-02 1.68e-01h  1
  22 -5.8894161e+00 1.73e+01 9.66e+03  -6.0 2.77e+02  -6.2 2.47e-03 3.38e-01h  1
  23 -5.8893032e+00 1.73e+01 9.71e+03  -6.0 1.28e+01  -3.9 8.44e-02 3.52e-03h  1
  24 -5.8880017e+00 1.67e+01 9.85e+03  -6.0 1.03e+01  -4.4 5.32e-01 3.16e-02h  4
  25 -5.8874359e+00 1.64e+01 9.85e+03  -6.0 1.02e+01  -4.9 4.13e-01 1.56e-02h  6
  26 -5.8873535e+00 1.64e+01 9.90e+03  -6.0 1.86e+01  -5.4 3.83e-01 2.65e-03h  9
  27 -5.8873513e+00 1.64e+01 9.99e+03  -6.0 5.31e+01  -5.8 7.69e-01 9.27e-05h 14
  28 -5.8873510e+00 1.64e+01 1.00e+04  -6.0 1.43e+02  -6.3 3.70e-01 3.22e-05h 15
  29 -5.8945747e+00 1.05e+01 6.24e+03  -6.0 3.30e+02  -6.8 1.00e+00 3.75e-01h  1
iter    objective    inf_pr   inf_du lg(mu)  ||d||  lg(rg) alpha_du alpha_pr  ls
  30 -5.9046744e+00 1.01e+01 5.95e+03  -6.0 4.22e+03  -7.3 9.26e-02 3.82e-02h  1
  31 -5.9087720e+00 9.60e+00 1.21e+05  -6.0 1.21e+03  -7.7 7.52e-01 6.43e-02h  1
  32 -5.9346936e+00 4.75e+00 2.70e+04  -6.0 4.87e+02  -7.3 9.16e-01 8.02e-01h  1
  33 -5.9652060e+00 7.99e+00 1.38e+05  -6.0 3.80e+03    -  1.32e-01 4.17e-01h  1
  34 -5.9670204e+00 6.17e+00 3.03e+05  -6.0 8.31e+02    -  7.12e-02 2.39e-01h  1
  35 -5.9842059e+00 2.89e+00 6.86e+05  -6.0 5.99e+02    -  3.28e-01 6.28e-01h  1
  36r-5.9842059e+00 2.89e+00 1.00e+03   0.2 0.00e+00    -  0.00e+00 3.48e-07R  2
  37r-6.0001296e+00 2.88e+00 1.00e+03   0.2 1.05e+04    -  4.77e-06 1.28e-06f  1
  38 -5.9996941e+00 2.83e+00 4.53e+05  -6.0 2.09e+01    -  3.00e-01 1.98e-02h  1
  39 -5.9862888e+00 1.59e+00 1.05e+07  -6.0 2.03e+01    -  1.98e-02 4.37e-01h  1
iter    objective    inf_pr   inf_du lg(mu)  ||d||  lg(rg) alpha_du alpha_pr  ls
  40 -5.9872606e+00 1.25e+00 8.23e+06  -6.0 1.20e+01    -  8.04e-01 2.15e-01h  1
  41 -5.9757273e+00 2.32e-02 3.91e+01  -6.0 1.21e+01    -  8.19e-01 1.00e+00h  1
  42 -5.9826384e+00 4.40e-01 8.98e+00  -6.0 1.23e+02    -  5.71e-01 4.14e-01h  1
  43 -5.9891845e+00 3.19e-01 1.15e+05  -6.0 2.06e+02    -  5.59e-01 3.99e-01h  1
  44 -5.9891015e+00 2.94e-02 2.96e+05  -6.0 2.67e+01    -  7.56e-02 1.00e+00h  1
  45 -5.9892168e+00 2.14e-02 4.67e+04  -6.0 2.55e+01    -  8.90e-01 2.91e-01h  1
  46 -5.9948813e+00 5.51e-01 9.03e+03  -6.0 1.19e+02    -  4.81e-01 8.07e-01h  1
  47 -5.9953924e+00 4.91e-01 7.83e+03  -6.0 2.95e+02    -  1.81e-02 1.31e-01h  1
  48 -5.9958659e+00 1.46e-01 3.95e+01  -6.0 6.80e+01    -  9.51e-01 1.00e+00h  1
  49 -5.9959453e+00 1.26e-01 2.21e+01  -6.0 1.64e+02    -  9.44e-01 1.54e-01h  1
iter    objective    inf_pr   inf_du lg(mu)  ||d||  lg(rg) alpha_du alpha_pr  ls
  50 -5.9962372e+00 1.68e-01 1.25e+01  -6.0 2.57e+02    -  9.51e-01 1.00e+00h  1
  51 -5.9957246e+00 2.81e-03 6.67e-02  -6.0 1.36e+01    -  1.00e+00 1.00e+00h  1
  52 -5.9957210e+00 8.08e-06 1.56e-05  -6.0 7.24e-01    -  1.00e+00 1.00e+00h  1
  53 -5.9958527e+00 3.21e+00 8.83e+01  -7.5 6.04e+02    -  4.57e-01 7.60e-01h  1
  54 -5.9958448e+00 8.03e-01 7.41e+00  -7.5 1.40e+02    -  9.58e-01 8.17e-01h  1
  55 -5.9958394e+00 1.40e-02 3.38e-02  -7.5 2.91e+01    -  1.00e+00 1.00e+00h  1
  56 -5.9958393e+00 5.42e-06 1.46e-06  -7.5 6.02e-01    -  1.00e+00 1.00e+00h  1
  57 -5.9958393e+00 2.85e-10 1.30e-11  -7.5 2.56e-04    -  1.00e+00 1.00e+00h  1
  58 -5.9958408e+00 3.48e-03 8.98e-01  -9.0 1.80e+01    -  9.24e-01 8.26e-01h  1
  59 -5.9958411e+00 1.48e-04 1.45e-01  -9.0 3.06e+00    -  9.68e-01 1.00e+00h  1
iter    objective    inf_pr   inf_du lg(mu)  ||d||  lg(rg) alpha_du alpha_pr  ls
  60 -5.9958411e+00 4.18e-10 4.08e-09  -9.0 5.27e-03    -  1.00e+00 1.00e+00h  1

Number of Iterations....: 60

                                   (scaled)                 (unscaled)
Objective...............:  -4.6842508287462739e+00   -5.9958410607952306e+00
Dual infeasibility......:   4.0766486812782801e-09    5.2181103120361988e-09
Constraint violation....:   2.9409538021031578e-10    4.1836756281554694e-10
Complementarity.........:   1.4416590977258378e-09    1.8453236450890725e-09
Overall NLP error.......:   4.0766486812782801e-09    5.2181103120361988e-09


Number of objective function evaluations             = 108
Number of objective gradient evaluations             = 61
Number of equality constraint evaluations            = 108
Number of inequality constraint evaluations          = 108
Number of equality constraint Jacobian evaluations   = 62
Number of inequality constraint Jacobian evaluations = 62
Number of Lagrangian Hessian evaluations             = 60
Total CPU secs in IPOPT (w/o function evaluations)   =    155.215
Total CPU secs in NLP function evaluations           =      2.537

EXIT: Optimal Solution Found.
